(declare-const x0 Bool)
(declare-const x1 Bool)
(declare-const x2 Bool)
(declare-const x3 Bool)
(declare-const x4 Bool)
(declare-const x5 Bool)
(declare-const x6 Bool)
(declare-const x7 Bool)
(declare-const x8 Bool)
(declare-const x9 Bool)
(declare-const x10 Bool)
(declare-const x11 Bool)
(declare-const x12 Bool)
(declare-const x13 Bool)
(declare-const x14 Bool)
(declare-const x15 Bool)
(declare-const x16 Bool)
(declare-const x17 Bool)
(declare-const x18 Bool)
(declare-const x19 Bool)
(declare-const x20 Bool)
(declare-const x21 Bool)
(declare-const x22 Bool)
(declare-const x23 Bool)
(assert (and true x17))
(assert (or (= x9 (or x16 true)) (or (= (or x3 x15) true) x2)))
(assert (= (or (= (= x4 true) (= true x16)) false) (or x16 x10)))
(assert (and (or true x10) (and (or x20 x10) (and x21 true))))
(assert (and (= true x4) x7))
(assert (or (and (or true true) (or x16 true)) (and x9 true)))
(assert (and (= (and false x18) x22) (or (= x11 x4) x13)))
(assert (or (and true false) (= true x6)))
(assert (= x1 true))
(assert (and x11 (= x3 true)))
(check-sat)
